&CONTROL
    calculation   = "relax"  
    restart_mode  = "from_scratch"
    prefix        = "graphene"
    outdir        = "./outdir/"
    pseudo_dir    = "./pseudo/"
    verbosity     = "high"
    tprnfor       = .true.  
    tstress       = .true.
    etot_conv_thr =  1.0d-7
    forc_conv_thr =  1.0d-6
/

&SYSTEM
    ibrav       = 4
    nat         = 18
    ntyp        = 1
!    a           = 7.4015
!    c           = 20.0
 celldm(1) =     13.98696992
 celldm(3) =      2.70212367
!    nbnd        = 72
    assume_isolated = "2D"
    occupations = "smearing"
    smearing    = "mp"    
    degauss     =  1.0d-2
    ecutwfc     =  80
    ecutrho     =  480
/

&ELECTRONS
    conv_thr         =  1.000e-14
    electron_maxstep =  200
    mixing_beta      =  7.00000e-01
    startingpot      = "atomic"
    startingwfc      = "atomic+random"
/

&IONS
    ion_dynamics = "bfgs"
/

!&CELL
!    cell_dofree    = "ibrav+2Dxy"
!    cell_dynamics  = "bfgs"
!    press_conv_thr =  0.01
!/

K_POINTS {automatic}
 12  12  1  0 0 0

ATOMIC_SPECIES
C      12.01070  C.pbe-n-kjpaw_psl.1.0.0.UPF

ATOMIC_POSITIONS {crystal}
C             0.1111121709        0.2222243417        0.5000000000
C             0.2222243417        0.1111121709        0.5000000000
C             0.4444462778        0.2222231389        0.5000000000
C             0.5555557005        0.1111114011        0.5000000000
C             0.7777768611        0.2222231389        0.5000000000
C             0.8888878291        0.1111121709        0.5000000000
C             0.1111114011        0.5555557005        0.5000000000
C             0.2222231389        0.4444462778        0.5000000000
C             0.4444442995        0.5555557005        0.5000000000
C             0.5555557005        0.4444442995        0.5000000000
C             0.7777768611        0.5555537222        0.5000000000
C             0.8888885989        0.4444442995        0.5000000000
C             0.1111121709        0.8888878291        0.5000000000
C             0.2222231389        0.7777768611        0.5000000000
C             0.4444442995        0.8888885989        0.5000000000
C             0.5555537222        0.7777768611        0.5000000000
C             0.7777756583        0.8888878291        0.5000000000
C             0.8888878291        0.7777756583        0.5000000000

