&CONTROL
    calculation   = "vc-relax"  
    restart_mode  = "from_scratch"
    prefix        = "graphene"
    outdir        = "./outdir/"
    pseudo_dir    = "./pseudo/"
    verbosity     = "high"
    tprnfor       = .true.  
    tstress       = .true.
    etot_conv_thr =  1.0d-6
    forc_conv_thr =  1.0d-5
/

&SYSTEM
    ibrav       = 4
    nat         = 18
    ntyp        = 1
!    a           = 7.401
!    c           = 15.0
 celldm(1) =     13.98547410
 celldm(3) =      2.02680951
!    nbnd        = 16
    occupations = "smearing"
    smearing    = "gaussian"    
    degauss     =  1.0d-2
    ecutwfc     =  45
    ecutrho     =  360
/

&ELECTRONS
    conv_thr         =  1.000e-09
    electron_maxstep =  200
    mixing_beta      =  7.00000e-01
    startingpot      = "atomic"
    startingwfc      = "atomic+random"
/

&IONS
    ion_dynamics = "bfgs"
/

&CELL
    cell_dofree    = "ibrav+2Dxy"
    cell_dynamics  = "bfgs"
    press_conv_thr =  0.01
/

K_POINTS {automatic}
 6  6  1  0 0 0

ATOMIC_SPECIES
C      12.01070  C.pbe-n-kjpaw_psl.1.0.0.UPF

ATOMIC_POSITIONS {crystal}
C     0.1111111111        0.2222222222         0.500000000
C     0.2222222222        0.1111111111         0.500000000
C     0.4444444444        0.2222222222         0.500000000
C     0.5555555555        0.1111111111         0.500000000
C     0.7777777777        0.2222222222         0.500000000
C     0.8888888888        0.1111111111         0.500000000
C     0.1111111111        0.5555555555         0.500000000
C     0.2222222222        0.4444444444         0.500000000
C     0.4444444444        0.5555555555         0.500000000
C     0.5555555555        0.4444444444         0.500000000
C     0.7777777777        0.5555555555         0.500000000
C     0.8888888888        0.4444444444         0.500000000
C     0.1111111111        0.8888888888         0.500000000
C     0.2222222222        0.7777777777         0.500000000
C     0.4444444444        0.8888888888         0.500000000
C     0.5555555555        0.7777777777         0.500000000
C     0.7777777777        0.8888888888         0.500000000
C     0.8888888888        0.7777777777         0.500000000
