num_wann = 2
num_bands= 56

begin projections
C:pz
end projections

!translate_home_cell = .true.

!Disentanglement
dis_win_min  = -10
dis_win_max  = 10
dis_froz_min = -4.6
dis_froz_max = 1.4
dis_num_iter = 20000
!dis_mix_ratio= 0.5
!dis_conv_tol = 1.0E-10
!dis_conv_window = 5
    
!Wannierise
num_iter = 20000
conv_tol = 1.0E-10
conv_window     = 10
guiding_centres = .true.
    
!Post-Processing
!restart = plot
wannier_plot = .true.
!wannier_plot_format = xcrysden
wannier_plot_format = cube 
wannier_plot_mode   = crystal
wannier_plot_supercell = 5 5 1

bands_plot = .ture.
bands_num_points = 100
bands_plot_format = gnuplot
begin kpoint_path
     G 0.0 0.0 0.0 M 0.0 0.5 0.0
     M 0.0 0.5 0.0 K 0.333333 0.333333 0.0
     K 0.333333 0.333333 0.0 G 0.0 0.0 0.0 
end kpoint_path

! fermi_surface_plot = .true.
! fermi_surface_num_points = 100
! fermi_energy = -5.262

write_hr=.true.
write_rmn=.true.
write_tb=.true.
!end plot

begin unit_cell_cart
Bohr
        4.6620178   0.0000000   0.0000000
       -2.3310089   4.0374259   0.0000000
        0.0000000   0.0000000  28.3458919
end unit_cell_cart

begin atoms_cart
Bohr
        C          -0.0000000   2.6916173  14.1729459
        C           2.3310089   1.3458086  14.1729459
end atoms_cart

mp_grid = 12 12 1
begin kpoints
  0.00000000  0.00000000  0.00000000
  0.00000000  0.08333333  0.00000000
  0.00000000  0.16666667  0.00000000
  0.00000000  0.25000000  0.00000000
  0.00000000  0.33333333  0.00000000
  0.00000000  0.41666667  0.00000000
  0.00000000  0.50000000  0.00000000
  0.00000000  0.58333333  0.00000000
  0.00000000  0.66666667  0.00000000
  0.00000000  0.75000000  0.00000000
  0.00000000  0.83333333  0.00000000
  0.00000000  0.91666667  0.00000000
  0.08333333  0.00000000  0.00000000
  0.08333333  0.08333333  0.00000000
  0.08333333  0.16666667  0.00000000
  0.08333333  0.25000000  0.00000000
  0.08333333  0.33333333  0.00000000
  0.08333333  0.41666667  0.00000000
  0.08333333  0.50000000  0.00000000
  0.08333333  0.58333333  0.00000000
  0.08333333  0.66666667  0.00000000
  0.08333333  0.75000000  0.00000000
  0.08333333  0.83333333  0.00000000
  0.08333333  0.91666667  0.00000000
  0.16666667  0.00000000  0.00000000
  0.16666667  0.08333333  0.00000000
  0.16666667  0.16666667  0.00000000
  0.16666667  0.25000000  0.00000000
  0.16666667  0.33333333  0.00000000
  0.16666667  0.41666667  0.00000000
  0.16666667  0.50000000  0.00000000
  0.16666667  0.58333333  0.00000000
  0.16666667  0.66666667  0.00000000
  0.16666667  0.75000000  0.00000000
  0.16666667  0.83333333  0.00000000
  0.16666667  0.91666667  0.00000000
  0.25000000  0.00000000  0.00000000
  0.25000000  0.08333333  0.00000000
  0.25000000  0.16666667  0.00000000
  0.25000000  0.25000000  0.00000000
  0.25000000  0.33333333  0.00000000
  0.25000000  0.41666667  0.00000000
  0.25000000  0.50000000  0.00000000
  0.25000000  0.58333333  0.00000000
  0.25000000  0.66666667  0.00000000
  0.25000000  0.75000000  0.00000000
  0.25000000  0.83333333  0.00000000
  0.25000000  0.91666667  0.00000000
  0.33333333  0.00000000  0.00000000
  0.33333333  0.08333333  0.00000000
  0.33333333  0.16666667  0.00000000
  0.33333333  0.25000000  0.00000000
  0.33333333  0.33333333  0.00000000
  0.33333333  0.41666667  0.00000000
  0.33333333  0.50000000  0.00000000
  0.33333333  0.58333333  0.00000000
  0.33333333  0.66666667  0.00000000
  0.33333333  0.75000000  0.00000000
  0.33333333  0.83333333  0.00000000
  0.33333333  0.91666667  0.00000000
  0.41666667  0.00000000  0.00000000
  0.41666667  0.08333333  0.00000000
  0.41666667  0.16666667  0.00000000
  0.41666667  0.25000000  0.00000000
  0.41666667  0.33333333  0.00000000
  0.41666667  0.41666667  0.00000000
  0.41666667  0.50000000  0.00000000
  0.41666667  0.58333333  0.00000000
  0.41666667  0.66666667  0.00000000
  0.41666667  0.75000000  0.00000000
  0.41666667  0.83333333  0.00000000
  0.41666667  0.91666667  0.00000000
  0.50000000  0.00000000  0.00000000
  0.50000000  0.08333333  0.00000000
  0.50000000  0.16666667  0.00000000
  0.50000000  0.25000000  0.00000000
  0.50000000  0.33333333  0.00000000
  0.50000000  0.41666667  0.00000000
  0.50000000  0.50000000  0.00000000
  0.50000000  0.58333333  0.00000000
  0.50000000  0.66666667  0.00000000
  0.50000000  0.75000000  0.00000000
  0.50000000  0.83333333  0.00000000
  0.50000000  0.91666667  0.00000000
  0.58333333  0.00000000  0.00000000
  0.58333333  0.08333333  0.00000000
  0.58333333  0.16666667  0.00000000
  0.58333333  0.25000000  0.00000000
  0.58333333  0.33333333  0.00000000
  0.58333333  0.41666667  0.00000000
  0.58333333  0.50000000  0.00000000
  0.58333333  0.58333333  0.00000000
  0.58333333  0.66666667  0.00000000
  0.58333333  0.75000000  0.00000000
  0.58333333  0.83333333  0.00000000
  0.58333333  0.91666667  0.00000000
  0.66666667  0.00000000  0.00000000
  0.66666667  0.08333333  0.00000000
  0.66666667  0.16666667  0.00000000
  0.66666667  0.25000000  0.00000000
  0.66666667  0.33333333  0.00000000
  0.66666667  0.41666667  0.00000000
  0.66666667  0.50000000  0.00000000
  0.66666667  0.58333333  0.00000000
  0.66666667  0.66666667  0.00000000
  0.66666667  0.75000000  0.00000000
  0.66666667  0.83333333  0.00000000
  0.66666667  0.91666667  0.00000000
  0.75000000  0.00000000  0.00000000
  0.75000000  0.08333333  0.00000000
  0.75000000  0.16666667  0.00000000
  0.75000000  0.25000000  0.00000000
  0.75000000  0.33333333  0.00000000
  0.75000000  0.41666667  0.00000000
  0.75000000  0.50000000  0.00000000
  0.75000000  0.58333333  0.00000000
  0.75000000  0.66666667  0.00000000
  0.75000000  0.75000000  0.00000000
  0.75000000  0.83333333  0.00000000
  0.75000000  0.91666667  0.00000000
  0.83333333  0.00000000  0.00000000
  0.83333333  0.08333333  0.00000000
  0.83333333  0.16666667  0.00000000
  0.83333333  0.25000000  0.00000000
  0.83333333  0.33333333  0.00000000
  0.83333333  0.41666667  0.00000000
  0.83333333  0.50000000  0.00000000
  0.83333333  0.58333333  0.00000000
  0.83333333  0.66666667  0.00000000
  0.83333333  0.75000000  0.00000000
  0.83333333  0.83333333  0.00000000
  0.83333333  0.91666667  0.00000000
  0.91666667  0.00000000  0.00000000
  0.91666667  0.08333333  0.00000000
  0.91666667  0.16666667  0.00000000
  0.91666667  0.25000000  0.00000000
  0.91666667  0.33333333  0.00000000
  0.91666667  0.41666667  0.00000000
  0.91666667  0.50000000  0.00000000
  0.91666667  0.58333333  0.00000000
  0.91666667  0.66666667  0.00000000
  0.91666667  0.75000000  0.00000000
  0.91666667  0.83333333  0.00000000
  0.91666667  0.91666667  0.00000000
end kpoints
