&input
 fildyn = 'graphene.dyn'
 zasr   = 'crystal'
 flfrc  = 'ifc.q2r'
 loto_2d= .true.
/
