&projwfc
prefix = 'Si'
outdir = './outdir'
lsym = .false.
filproj = 'fatband'
/
