begin projections
 C:pz
end projections
num_wann =   2
iprint =   2
dis_win_max =    10.000000000000
dis_froz_min =    -4.500000000000
dis_froz_max =     1.350000000000
num_iter =   30000
write_bvec = .true.
 conv_tol      = 1.0e-10
 conv_window   = 10
 dis_conv_tol  = 1.0e-10
 dis_conv_window = 5
 dis_num_iter= 30000
 dis_mix_ratio= 0.5
 guiding_centres = .true.
 translate_home_cell  : true
 translation_centre_frac :   0.0 0.0 0.0
 write_hr = .true.
