&dos
prefix = 'Si'
outdir = './outdir'
!bz_sum = 'tetrahedra_opt'
ngauss = 1
degauss = 0.005
deltaE  = 0.01
fildos = 'Si.dos'
/
