 Phonons
 &inputph
 tr2_ph=1.0d-16,
 prefix='Si',
 outdir='./'
! epsil=.true. !use for insulators and semiconductor with Gamma point
 ldisp=.true.
 nq1=6, nq2=6, nq3=6
 !amass(1)=0.0
 fildyn=“Si.dyn”,
 fildvscf='dvscf'
 /
